p cnf 19 19
-1 -2 18 0 
-3 -4 19 0 
-5 17 19 0 
-1 -2 19 0 
-2 18 0 
-2 -1 18 0 
-6 -7 18 0 
-2 -1 19 0 
-8 -7 19 0 
-7 -9 19 0 
-2 19 0 
-10 -11 18 0 
-12 -13 19 0 
-12 -13 18 0 
-7 -14 -1 18 0 
-15 -1 19 0 
-16 18 0 
-17 5 19 0 
-17 5 18 0 
